************************************************************************
file with basedata            : mm18_.bas
initial value random generator: 1930592064
************************************************************************
projects                      :  1
jobs (incl. supersource/sink ):  12
horizon                       :  75
RESOURCES
  - renewable                 :  2   R
  - nonrenewable              :  2   N
  - doubly constrained        :  0   D
************************************************************************
PROJECT INFORMATION:
pronr.  #jobs rel.date duedate tardcost  MPM-Time
    1     10      0       16        5       16
************************************************************************
PRECEDENCE RELATIONS:
jobnr.    #modes  #successors   successors
   0        1          3           1   2   3
   1        3          1           9
   2        3          3           4   5   6
   3        3          2           7   9
   4        3          2           7   9
   5        3          1           7
   6        3          2           8  10
   7        3          1          10
   8        3          1          11
   9        3          1          11
  10        3          1          11
  11        1          0        
************************************************************************
REQUESTS/DURATIONS:
jobnr. mode duration  R 1  R 2  R 3  R 4  E(W 1)  E(W 2)  E(W 3)
------------------------------------------------------------------------
  0      1     0       0    0    0    0     0       0       0
  1      1     2       3    0    0    2     6       0       4
  2      1     3       0    8    8    0    24      24       0
  3      1     3       0    4    6    0    12      18       0
  4      1     2       4    0    0    6     8       0      12
  5      1     4       9    0    5    0    36      20       0
  6      1     2       0    2    7    0     4      14       0
  7      1     5       4    0    0    9    20       0      45
  8      1     1       0    9    5    0     9       5       0
  9      1     1       6    0    0    8     6       0       8
 10      1     4       0    6    8    0    24      32       0
 11      1     0       0    0    0    0     0       0       0
************************************************************************
RESOURCEAVAILABILITIES:
  R 1  R 2  R 3
   26   33   26
************************************************************************
RESOURCE LIMITS:
jobnr.  l(R 1)  u(R 1)  l(R 2)  u(R 2)  l(R 3)  u(R 3)
------------------------------------------------------------------------
  0        0       0       0       0       0       0
  1        2       3       0       0       1       2
  2        4       8       4       8       0       0
  3        2       4       3       6       0       0
  4        2       4       0       0       3       6
  5        5       9       3       5       0       0
  6        1       2       4       7       0       0
  7        2       4       0       0       5       9
  8        5       9       3       5       0       0
  9        3       6       0       0       4       8
 10        3       6       4       8       0       0
 11        0       0       0       0       0       0
************************************************************************
SCENARIOS:
------------------------------------------------------------------------
RESOURCE k = 1
s = 1: (0, 9, 18, 13, 10, 54, 4, 15, 6, 6, 33, 0)
s = 2: (0, 6, 28, 14, 10, 35, 5, 25, 12, 4, 21, 0)
s = 3: (0, 6, 23, 13, 7, 56, 3, 18, 13, 6, 27, 0)
s = 4: (0, 8, 32, 8, 8, 35, 3, 19, 8, 7, 19, 0)
s = 5: (0, 5, 32, 16, 12, 36, 5, 19, 7, 4, 21, 0)
s = 6: (0, 4, 23, 11, 14, 52, 6, 21, 12, 9, 15, 0)
s = 7: (0, 10, 32, 15, 9, 35, 4, 22, 10, 5, 19, 0)
s = 8: (0, 8, 38, 15, 13, 37, 4, 27, 8, 5, 26, 0)
s = 9: (0, 9, 30, 10, 7, 48, 5, 18, 7, 6, 39, 0)
s = 10: (0, 6, 24, 12, 8, 53, 4, 22, 10, 7, 26, 0)
s = 11: (0, 6, 31, 12, 7, 32, 3, 25, 13, 6, 21, 0)
s = 12: (0, 4, 14, 10, 6, 57, 3, 14, 13, 6, 27, 0)
s = 13: (0, 5, 23, 9, 8, 31, 4, 25, 11, 9, 22, 0)
s = 14: (0, 7, 19, 11, 8, 35, 4, 22, 11, 9, 29, 0)
s = 15: (0, 10, 33, 12, 7, 53, 6, 14, 13, 5, 20, 0)
s = 16: (0, 7, 36, 16, 6, 34, 6, 33, 7, 9, 22, 0)
s = 17: (0, 6, 21, 9, 10, 26, 6, 19, 10, 9, 22, 0)
s = 18: (0, 5, 33, 14, 11, 26, 6, 16, 6, 6, 38, 0)
s = 19: (0, 5, 17, 12, 8, 59, 4, 21, 7, 7, 24, 0)
s = 20: (0, 5, 17, 11, 7, 42, 4, 18, 12, 6, 18, 0)
s = 21: (0, 8, 18, 12, 7, 28, 4, 21, 7, 7, 15, 0)
s = 22: (0, 7, 26, 13, 8, 42, 5, 14, 9, 6, 20, 0)
s = 23: (0, 7, 23, 15, 8, 41, 4, 19, 6, 5, 32, 0)
s = 24: (0, 8, 31, 21, 9, 65, 5, 17, 8, 5, 28, 0)
s = 25: (0, 7, 24, 15, 9, 47, 6, 21, 12, 7, 38, 0)
s = 26: (0, 4, 28, 15, 9, 39, 7, 30, 10, 5, 18, 0)
s = 27: (0, 10, 40, 9, 7, 30, 3, 15, 10, 6, 19, 0)
s = 28: (0, 8, 28, 11, 12, 32, 4, 16, 6, 5, 38, 0)
s = 29: (0, 4, 16, 11, 11, 40, 5, 24, 9, 5, 36, 0)
s = 30: (0, 5, 30, 12, 7, 29, 3, 23, 11, 7, 28, 0)
s = 31: (0, 6, 33, 16, 9, 20, 4, 28, 10, 7, 17, 0)
s = 32: (0, 7, 23, 9, 7, 47, 4, 16, 10, 4, 22, 0)
s = 33: (0, 7, 29, 9, 8, 43, 4, 18, 11, 10, 22, 0)
s = 34: (0, 7, 18, 11, 6, 67, 5, 35, 12, 6, 22, 0)
s = 35: (0, 7, 23, 7, 8, 37, 4, 24, 7, 8, 27, 0)
s = 36: (0, 7, 35, 14, 14, 26, 5, 16, 10, 5, 19, 0)
s = 37: (0, 7, 26, 12, 14, 33, 3, 24, 14, 7, 26, 0)
s = 38: (0, 7, 23, 14, 8, 59, 4, 25, 8, 8, 24, 0)
s = 39: (0, 7, 18, 14, 7, 22, 3, 21, 13, 9, 27, 0)
s = 40: (0, 7, 22, 9, 10, 25, 4, 19, 7, 7, 18, 0)
s = 41: (0, 5, 25, 14, 10, 33, 4, 15, 11, 9, 22, 0)
s = 42: (0, 8, 24, 14, 7, 22, 5, 22, 8, 7, 32, 0)
s = 43: (0, 4, 40, 12, 8, 56, 3, 18, 12, 4, 16, 0)
s = 44: (0, 5, 34, 11, 7, 30, 5, 17, 11, 6, 31, 0)
s = 45: (0, 4, 31, 11, 6, 25, 3, 23, 9, 6, 14, 0)
s = 46: (0, 7, 16, 11, 7, 35, 4, 12, 9, 10, 18, 0)
s = 47: (0, 7, 15, 10, 11, 27, 7, 16, 7, 8, 19, 0)
s = 48: (0, 6, 29, 8, 8, 31, 5, 20, 9, 5, 22, 0)
s = 49: (0, 7, 33, 18, 8, 38, 4, 23, 12, 7, 30, 0)
s = 50: (0, 5, 33, 10, 6, 28, 6, 18, 10, 6, 14, 0)
s = 51: (0, 6, 23, 11, 9, 44, 5, 29, 7, 6, 35, 0)
s = 52: (0, 5, 23, 10, 9, 24, 4, 18, 7, 8, 13, 0)
s = 53: (0, 7, 21, 15, 11, 33, 5, 24, 7, 7, 36, 0)
s = 54: (0, 4, 28, 11, 8, 40, 6, 20, 8, 6, 15, 0)
s = 55: (0, 5, 18, 11, 10, 29, 3, 15, 12, 7, 33, 0)
s = 56: (0, 6, 24, 12, 6, 42, 6, 18, 14, 6, 32, 0)
s = 57: (0, 8, 16, 17, 11, 46, 5, 16, 12, 6, 18, 0)
s = 58: (0, 5, 21, 10, 11, 46, 4, 31, 7, 6, 18, 0)
s = 59: (0, 6, 26, 13, 6, 35, 5, 12, 10, 5, 21, 0)
s = 60: (0, 5, 21, 16, 7, 51, 4, 24, 15, 5, 18, 0)
s = 61: (0, 7, 20, 10, 9, 23, 5, 20, 8, 8, 21, 0)
s = 62: (0, 9, 25, 10, 7, 37, 6, 13, 11, 8, 15, 0)
s = 63: (0, 4, 17, 12, 8, 21, 7, 21, 10, 8, 27, 0)
s = 64: (0, 7, 32, 19, 11, 47, 5, 19, 13, 8, 18, 0)
s = 65: (0, 6, 27, 12, 7, 30, 4, 32, 8, 8, 24, 0)
s = 66: (0, 4, 29, 16, 10, 46, 5, 23, 7, 6, 41, 0)
s = 67: (0, 4, 24, 16, 10, 44, 6, 28, 8, 7, 15, 0)
s = 68: (0, 5, 33, 13, 10, 26, 4, 12, 7, 5, 28, 0)
s = 69: (0, 9, 20, 16, 11, 32, 6, 11, 7, 5, 15, 0)
s = 70: (0, 8, 19, 17, 7, 29, 4, 21, 11, 7, 40, 0)
s = 71: (0, 6, 27, 18, 7, 41, 3, 20, 12, 6, 28, 0)
s = 72: (0, 7, 34, 15, 9, 20, 4, 19, 10, 5, 32, 0)
s = 73: (0, 10, 26, 17, 8, 25, 5, 19, 12, 7, 16, 0)
s = 74: (0, 8, 26, 13, 5, 68, 7, 22, 8, 5, 25, 0)
s = 75: (0, 6, 37, 16, 7, 24, 7, 23, 6, 6, 35, 0)
s = 76: (0, 9, 14, 10, 5, 36, 4, 13, 10, 9, 25, 0)
s = 77: (0, 6, 24, 17, 7, 25, 5, 22, 7, 5, 34, 0)
s = 78: (0, 6, 22, 12, 12, 49, 5, 22, 11, 5, 33, 0)
s = 79: (0, 7, 27, 10, 11, 40, 5, 19, 9, 6, 27, 0)
s = 80: (0, 7, 20, 11, 7, 34, 8, 14, 9, 6, 29, 0)
s = 81: (0, 5, 31, 14, 12, 24, 5, 23, 7, 7, 24, 0)
s = 82: (0, 5, 29, 9, 8, 36, 4, 22, 14, 6, 31, 0)
s = 83: (0, 10, 26, 8, 6, 35, 4, 24, 6, 6, 29, 0)
s = 84: (0, 5, 22, 18, 10, 31, 4, 18, 12, 8, 25, 0)
s = 85: (0, 6, 20, 10, 6, 57, 5, 27, 11, 6, 28, 0)
s = 86: (0, 6, 26, 13, 9, 25, 4, 13, 11, 7, 23, 0)
s = 87: (0, 9, 26, 13, 6, 29, 4, 27, 11, 6, 41, 0)
s = 88: (0, 6, 21, 13, 10, 21, 5, 14, 8, 9, 30, 0)
s = 89: (0, 5, 28, 14, 8, 43, 4, 22, 11, 11, 24, 0)
s = 90: (0, 7, 23, 7, 7, 32, 4, 30, 11, 5, 32, 0)
s = 91: (0, 10, 29, 16, 7, 32, 4, 20, 14, 9, 36, 0)
s = 92: (0, 6, 26, 10, 7, 27, 3, 27, 9, 4, 31, 0)
s = 93: (0, 6, 29, 18, 9, 46, 7, 12, 10, 5, 40, 0)
s = 94: (0, 6, 25, 16, 6, 58, 4, 19, 9, 7, 18, 0)
s = 95: (0, 9, 23, 13, 7, 30, 5, 17, 7, 11, 17, 0)
s = 96: (0, 7, 22, 15, 14, 30, 4, 28, 11, 11, 45, 0)
s = 97: (0, 11, 22, 16, 6, 46, 3, 21, 10, 5, 43, 0)
s = 98: (0, 4, 31, 7, 7, 33, 4, 28, 12, 7, 20, 0)
s = 99: (0, 7, 23, 12, 8, 31, 4, 12, 9, 8, 26, 0)
s = 100: (0, 9, 24, 8, 9, 26, 5, 19, 9, 6, 25, 0)
s = 101: (0, 7, 36, 7, 9, 41, 5, 25, 11, 6, 21, 0)
s = 102: (0, 7, 31, 7, 10, 40, 4, 20, 7, 6, 17, 0)
s = 103: (0, 7, 23, 10, 9, 31, 7, 20, 7, 5, 23, 0)
s = 104: (0, 8, 15, 13, 11, 22, 4, 31, 7, 5, 25, 0)
s = 105: (0, 6, 17, 16, 10, 28, 4, 14, 7, 7, 18, 0)
s = 106: (0, 5, 15, 9, 7, 22, 4, 18, 10, 5, 19, 0)
s = 107: (0, 8, 29, 13, 6, 25, 6, 22, 14, 7, 27, 0)
s = 108: (0, 6, 28, 9, 5, 33, 3, 21, 12, 5, 21, 0)
s = 109: (0, 8, 22, 13, 6, 41, 4, 22, 11, 6, 30, 0)
s = 110: (0, 4, 22, 10, 11, 34, 3, 25, 12, 6, 26, 0)
s = 111: (0, 10, 23, 13, 5, 19, 3, 17, 7, 8, 24, 0)
s = 112: (0, 5, 21, 13, 12, 26, 4, 16, 8, 5, 15, 0)
s = 113: (0, 7, 17, 15, 13, 34, 7, 22, 8, 6, 25, 0)
s = 114: (0, 4, 22, 14, 9, 27, 3, 16, 10, 7, 27, 0)
s = 115: (0, 7, 22, 14, 10, 33, 5, 15, 7, 8, 29, 0)
s = 116: (0, 7, 16, 8, 7, 52, 3, 19, 11, 4, 21, 0)
s = 117: (0, 7, 18, 10, 11, 64, 4, 14, 9, 5, 26, 0)
s = 118: (0, 6, 20, 20, 6, 25, 6, 32, 10, 8, 27, 0)
s = 119: (0, 8, 16, 12, 7, 42, 6, 18, 8, 7, 23, 0)
s = 120: (0, 8, 37, 19, 13, 25, 8, 26, 9, 10, 20, 0)
s = 121: (0, 7, 26, 12, 9, 26, 5, 21, 6, 5, 25, 0)
s = 122: (0, 7, 28, 12, 5, 22, 5, 17, 7, 5, 26, 0)
s = 123: (0, 7, 17, 12, 6, 43, 3, 16, 7, 5, 48, 0)
s = 124: (0, 10, 25, 15, 11, 27, 4, 19, 7, 8, 17, 0)
s = 125: (0, 6, 40, 15, 8, 28, 5, 18, 9, 4, 16, 0)
s = 126: (0, 13, 19, 13, 12, 31, 3, 17, 8, 5, 15, 0)
s = 127: (0, 7, 41, 16, 6, 29, 3, 24, 6, 6, 20, 0)
s = 128: (0, 5, 26, 12, 10, 24, 4, 11, 8, 7, 20, 0)
s = 129: (0, 7, 32, 12, 7, 34, 4, 13, 13, 6, 31, 0)
s = 130: (0, 10, 32, 10, 9, 37, 5, 19, 9, 8, 18, 0)
s = 131: (0, 5, 44, 12, 13, 40, 7, 23, 11, 7, 29, 0)
s = 132: (0, 6, 21, 10, 6, 31, 4, 14, 9, 8, 16, 0)
s = 133: (0, 5, 21, 9, 8, 30, 5, 27, 11, 5, 18, 0)
s = 134: (0, 5, 23, 13, 9, 41, 6, 17, 8, 8, 23, 0)
s = 135: (0, 5, 16, 8, 11, 45, 6, 22, 11, 5, 15, 0)
s = 136: (0, 11, 18, 13, 10, 43, 4, 14, 11, 6, 21, 0)
s = 137: (0, 6, 23, 10, 12, 28, 5, 13, 10, 8, 17, 0)
s = 138: (0, 5, 23, 13, 9, 41, 4, 30, 6, 6, 30, 0)
s = 139: (0, 6, 20, 16, 11, 49, 6, 17, 8, 5, 16, 0)
s = 140: (0, 7, 41, 15, 8, 21, 4, 25, 10, 5, 34, 0)
s = 141: (0, 5, 19, 12, 8, 45, 4, 21, 7, 5, 16, 0)
s = 142: (0, 4, 24, 17, 13, 37, 5, 15, 7, 7, 18, 0)
s = 143: (0, 5, 31, 11, 12, 39, 3, 31, 9, 5, 25, 0)
s = 144: (0, 9, 16, 9, 7, 32, 3, 16, 8, 8, 25, 0)
s = 145: (0, 5, 14, 10, 13, 31, 6, 30, 11, 4, 23, 0)
s = 146: (0, 6, 42, 11, 5, 23, 3, 15, 12, 5, 25, 0)
s = 147: (0, 4, 15, 11, 7, 36, 5, 35, 11, 6, 27, 0)
s = 148: (0, 5, 21, 10, 6, 42, 4, 33, 7, 8, 16, 0)
s = 149: (0, 5, 20, 11, 6, 42, 4, 26, 8, 8, 28, 0)
s = 150: (0, 6, 35, 21, 7, 31, 6, 22, 7, 11, 45, 0)
s = 151: (0, 6, 31, 12, 10, 36, 3, 16, 13, 6, 27, 0)
s = 152: (0, 8, 22, 11, 9, 33, 5, 18, 7, 9, 17, 0)
s = 153: (0, 8, 20, 15, 10, 48, 4, 19, 17, 5, 14, 0)
s = 154: (0, 5, 22, 18, 9, 31, 4, 11, 7, 5, 32, 0)
s = 155: (0, 5, 23, 19, 11, 35, 4, 25, 10, 9, 17, 0)
s = 156: (0, 7, 20, 11, 6, 51, 4, 15, 11, 5, 32, 0)
s = 157: (0, 7, 17, 10, 10, 40, 5, 30, 7, 8, 29, 0)
s = 158: (0, 6, 29, 9, 9, 35, 5, 19, 10, 5, 28, 0)
s = 159: (0, 4, 22, 18, 9, 33, 3, 14, 12, 8, 22, 0)
s = 160: (0, 4, 28, 15, 9, 25, 3, 15, 6, 7, 32, 0)
s = 161: (0, 9, 15, 9, 7, 46, 3, 20, 16, 6, 15, 0)
s = 162: (0, 7, 16, 14, 6, 50, 3, 22, 9, 8, 26, 0)
s = 163: (0, 8, 23, 12, 10, 30, 4, 26, 9, 6, 22, 0)
s = 164: (0, 5, 14, 16, 6, 38, 3, 33, 11, 4, 27, 0)
s = 165: (0, 9, 27, 8, 11, 53, 3, 15, 9, 4, 20, 0)
s = 166: (0, 9, 19, 9, 14, 28, 6, 13, 6, 8, 20, 0)
s = 167: (0, 5, 20, 11, 6, 52, 7, 20, 11, 7, 19, 0)
s = 168: (0, 6, 26, 12, 7, 24, 3, 32, 7, 8, 20, 0)
s = 169: (0, 5, 40, 18, 10, 26, 4, 22, 14, 6, 17, 0)
s = 170: (0, 8, 26, 11, 11, 27, 4, 20, 8, 6, 17, 0)
s = 171: (0, 7, 19, 7, 8, 30, 4, 19, 9, 8, 26, 0)
s = 172: (0, 5, 15, 10, 9, 31, 4, 19, 8, 6, 27, 0)
s = 173: (0, 7, 25, 14, 10, 54, 5, 21, 13, 7, 38, 0)
s = 174: (0, 8, 19, 11, 11, 50, 4, 29, 10, 4, 26, 0)
s = 175: (0, 8, 17, 14, 7, 43, 4, 34, 10, 5, 29, 0)
s = 176: (0, 8, 29, 11, 8, 35, 4, 21, 12, 5, 20, 0)
s = 177: (0, 10, 13, 12, 9, 35, 4, 16, 9, 5, 31, 0)
s = 178: (0, 9, 37, 14, 7, 26, 4, 15, 11, 6, 21, 0)
s = 179: (0, 5, 27, 7, 11, 27, 5, 16, 12, 6, 19, 0)
s = 180: (0, 5, 27, 11, 6, 51, 3, 21, 12, 6, 24, 0)
s = 181: (0, 8, 20, 9, 6, 28, 6, 30, 9, 5, 25, 0)
s = 182: (0, 6, 18, 10, 11, 21, 6, 35, 13, 8, 17, 0)
s = 183: (0, 8, 24, 15, 10, 30, 4, 14, 10, 7, 20, 0)
s = 184: (0, 6, 25, 7, 9, 43, 3, 28, 11, 10, 27, 0)
s = 185: (0, 5, 17, 12, 7, 51, 7, 14, 8, 5, 28, 0)
s = 186: (0, 5, 23, 9, 12, 56, 5, 23, 13, 8, 21, 0)
s = 187: (0, 6, 40, 11, 12, 25, 4, 18, 12, 5, 15, 0)
s = 188: (0, 7, 20, 19, 5, 37, 3, 26, 7, 6, 32, 0)
s = 189: (0, 5, 27, 13, 8, 38, 3, 26, 10, 7, 19, 0)
s = 190: (0, 9, 21, 19, 5, 46, 5, 14, 11, 5, 19, 0)
s = 191: (0, 11, 33, 8, 6, 48, 4, 25, 6, 8, 14, 0)
s = 192: (0, 5, 16, 13, 9, 22, 4, 27, 6, 5, 37, 0)
s = 193: (0, 6, 25, 14, 7, 40, 3, 23, 8, 7, 17, 0)
s = 194: (0, 8, 13, 11, 8, 27, 4, 20, 10, 10, 22, 0)
s = 195: (0, 4, 27, 17, 7, 32, 4, 32, 8, 7, 24, 0)
s = 196: (0, 6, 21, 16, 7, 39, 3, 13, 13, 8, 17, 0)
s = 197: (0, 10, 16, 9, 11, 27, 5, 35, 11, 5, 29, 0)
s = 198: (0, 5, 19, 9, 10, 45, 5, 28, 7, 5, 42, 0)
s = 199: (0, 5, 15, 14, 9, 67, 4, 21, 6, 6, 17, 0)
s = 200: (0, 7, 24, 8, 9, 28, 4, 18, 10, 7, 19, 0)
------------------------------------------------------------------------
RESOURCE k = 2
s = 1: (0, 0, 18, 19, 0, 30, 12, 0, 3, 0, 44, 0)
s = 2: (0, 0, 28, 20, 0, 20, 18, 0, 7, 0, 27, 0)
s = 3: (0, 0, 23, 19, 0, 31, 10, 0, 8, 0, 36, 0)
s = 4: (0, 0, 32, 12, 0, 19, 10, 0, 5, 0, 25, 0)
s = 5: (0, 0, 32, 24, 0, 20, 15, 0, 4, 0, 27, 0)
s = 6: (0, 0, 23, 17, 0, 29, 19, 0, 7, 0, 19, 0)
s = 7: (0, 0, 32, 22, 0, 19, 13, 0, 6, 0, 26, 0)
s = 8: (0, 0, 38, 22, 0, 21, 14, 0, 5, 0, 35, 0)
s = 9: (0, 0, 30, 15, 0, 27, 15, 0, 4, 0, 52, 0)
s = 10: (0, 0, 24, 18, 0, 30, 14, 0, 6, 0, 34, 0)
s = 11: (0, 0, 31, 18, 0, 18, 8, 0, 7, 0, 27, 0)
s = 12: (0, 0, 14, 15, 0, 32, 10, 0, 8, 0, 36, 0)
s = 13: (0, 0, 23, 14, 0, 18, 13, 0, 6, 0, 29, 0)
s = 14: (0, 0, 19, 16, 0, 20, 13, 0, 6, 0, 39, 0)
s = 15: (0, 0, 33, 17, 0, 29, 18, 0, 8, 0, 27, 0)
s = 16: (0, 0, 36, 23, 0, 19, 19, 0, 4, 0, 29, 0)
s = 17: (0, 0, 21, 13, 0, 15, 20, 0, 6, 0, 30, 0)
s = 18: (0, 0, 33, 20, 0, 15, 21, 0, 4, 0, 50, 0)
s = 19: (0, 0, 17, 18, 0, 33, 14, 0, 4, 0, 32, 0)
s = 20: (0, 0, 17, 16, 0, 24, 14, 0, 7, 0, 23, 0)
s = 21: (0, 0, 18, 17, 0, 16, 12, 0, 4, 0, 20, 0)
s = 22: (0, 0, 26, 19, 0, 24, 15, 0, 5, 0, 26, 0)
s = 23: (0, 0, 23, 22, 0, 23, 13, 0, 4, 0, 43, 0)
s = 24: (0, 0, 31, 31, 0, 36, 15, 0, 5, 0, 37, 0)
s = 25: (0, 0, 24, 22, 0, 26, 19, 0, 7, 0, 50, 0)
s = 26: (0, 0, 28, 22, 0, 22, 25, 0, 6, 0, 24, 0)
s = 27: (0, 0, 40, 13, 0, 17, 10, 0, 6, 0, 25, 0)
s = 28: (0, 0, 28, 16, 0, 18, 12, 0, 4, 0, 51, 0)
s = 29: (0, 0, 16, 16, 0, 23, 15, 0, 5, 0, 47, 0)
s = 30: (0, 0, 30, 18, 0, 16, 10, 0, 6, 0, 37, 0)
s = 31: (0, 0, 33, 23, 0, 12, 14, 0, 6, 0, 23, 0)
s = 32: (0, 0, 23, 14, 0, 26, 12, 0, 6, 0, 29, 0)
s = 33: (0, 0, 29, 13, 0, 24, 12, 0, 7, 0, 29, 0)
s = 34: (0, 0, 18, 16, 0, 37, 16, 0, 7, 0, 29, 0)
s = 35: (0, 0, 23, 11, 0, 21, 14, 0, 4, 0, 35, 0)
s = 36: (0, 0, 35, 20, 0, 15, 15, 0, 6, 0, 25, 0)
s = 37: (0, 0, 26, 18, 0, 19, 10, 0, 8, 0, 34, 0)
s = 38: (0, 0, 23, 20, 0, 33, 14, 0, 5, 0, 31, 0)
s = 39: (0, 0, 18, 20, 0, 12, 10, 0, 7, 0, 36, 0)
s = 40: (0, 0, 22, 13, 0, 14, 13, 0, 4, 0, 24, 0)
s = 41: (0, 0, 25, 20, 0, 19, 11, 0, 6, 0, 30, 0)
s = 42: (0, 0, 24, 20, 0, 12, 16, 0, 4, 0, 42, 0)
s = 43: (0, 0, 40, 17, 0, 31, 11, 0, 7, 0, 21, 0)
s = 44: (0, 0, 34, 16, 0, 17, 16, 0, 6, 0, 41, 0)
s = 45: (0, 0, 31, 16, 0, 14, 9, 0, 5, 0, 19, 0)
s = 46: (0, 0, 16, 17, 0, 20, 13, 0, 5, 0, 23, 0)
s = 47: (0, 0, 15, 15, 0, 15, 24, 0, 4, 0, 26, 0)
s = 48: (0, 0, 29, 12, 0, 17, 16, 0, 5, 0, 29, 0)
s = 49: (0, 0, 33, 26, 0, 21, 14, 0, 7, 0, 39, 0)
s = 50: (0, 0, 33, 15, 0, 16, 20, 0, 6, 0, 19, 0)
s = 51: (0, 0, 23, 17, 0, 25, 15, 0, 4, 0, 46, 0)
s = 52: (0, 0, 23, 14, 0, 14, 12, 0, 4, 0, 17, 0)
s = 53: (0, 0, 21, 22, 0, 19, 17, 0, 4, 0, 48, 0)
s = 54: (0, 0, 28, 16, 0, 23, 21, 0, 5, 0, 20, 0)
s = 55: (0, 0, 18, 16, 0, 16, 11, 0, 7, 0, 44, 0)
s = 56: (0, 0, 24, 17, 0, 24, 18, 0, 8, 0, 43, 0)
s = 57: (0, 0, 16, 26, 0, 26, 18, 0, 7, 0, 23, 0)
s = 58: (0, 0, 21, 15, 0, 26, 12, 0, 4, 0, 24, 0)
s = 59: (0, 0, 26, 20, 0, 20, 16, 0, 6, 0, 28, 0)
s = 60: (0, 0, 21, 24, 0, 28, 12, 0, 8, 0, 24, 0)
s = 61: (0, 0, 20, 15, 0, 13, 15, 0, 5, 0, 28, 0)
s = 62: (0, 0, 25, 15, 0, 21, 18, 0, 6, 0, 19, 0)
s = 63: (0, 0, 17, 17, 0, 12, 23, 0, 6, 0, 36, 0)
s = 64: (0, 0, 32, 29, 0, 26, 15, 0, 8, 0, 24, 0)
s = 65: (0, 0, 27, 18, 0, 17, 14, 0, 5, 0, 32, 0)
s = 66: (0, 0, 29, 24, 0, 26, 18, 0, 4, 0, 55, 0)
s = 67: (0, 0, 24, 23, 0, 24, 19, 0, 5, 0, 20, 0)
s = 68: (0, 0, 33, 19, 0, 15, 12, 0, 4, 0, 37, 0)
s = 69: (0, 0, 20, 23, 0, 18, 18, 0, 4, 0, 20, 0)
s = 70: (0, 0, 19, 25, 0, 16, 12, 0, 6, 0, 53, 0)
s = 71: (0, 0, 27, 27, 0, 23, 11, 0, 7, 0, 37, 0)
s = 72: (0, 0, 34, 22, 0, 11, 13, 0, 6, 0, 43, 0)
s = 73: (0, 0, 26, 25, 0, 14, 16, 0, 7, 0, 21, 0)
s = 74: (0, 0, 26, 19, 0, 38, 22, 0, 5, 0, 34, 0)
s = 75: (0, 0, 37, 23, 0, 14, 22, 0, 4, 0, 47, 0)
s = 76: (0, 0, 14, 15, 0, 20, 11, 0, 6, 0, 33, 0)
s = 77: (0, 0, 24, 25, 0, 14, 16, 0, 4, 0, 45, 0)
s = 78: (0, 0, 22, 17, 0, 27, 15, 0, 6, 0, 43, 0)
s = 79: (0, 0, 27, 15, 0, 22, 15, 0, 5, 0, 35, 0)
s = 80: (0, 0, 20, 16, 0, 19, 26, 0, 5, 0, 38, 0)
s = 81: (0, 0, 31, 20, 0, 13, 16, 0, 4, 0, 32, 0)
s = 82: (0, 0, 29, 14, 0, 20, 13, 0, 8, 0, 42, 0)
s = 83: (0, 0, 26, 12, 0, 20, 13, 0, 4, 0, 38, 0)
s = 84: (0, 0, 22, 27, 0, 17, 14, 0, 7, 0, 34, 0)
s = 85: (0, 0, 20, 15, 0, 32, 17, 0, 6, 0, 38, 0)
s = 86: (0, 0, 26, 19, 0, 14, 14, 0, 6, 0, 30, 0)
s = 87: (0, 0, 26, 20, 0, 16, 14, 0, 6, 0, 55, 0)
s = 88: (0, 0, 21, 19, 0, 12, 16, 0, 5, 0, 40, 0)
s = 89: (0, 0, 28, 20, 0, 24, 13, 0, 6, 0, 32, 0)
s = 90: (0, 0, 23, 11, 0, 18, 12, 0, 6, 0, 43, 0)
s = 91: (0, 0, 29, 23, 0, 18, 12, 0, 8, 0, 48, 0)
s = 92: (0, 0, 26, 15, 0, 15, 9, 0, 5, 0, 41, 0)
s = 93: (0, 0, 29, 27, 0, 26, 24, 0, 6, 0, 54, 0)
s = 94: (0, 0, 25, 24, 0, 32, 13, 0, 5, 0, 24, 0)
s = 95: (0, 0, 23, 19, 0, 17, 17, 0, 4, 0, 23, 0)
s = 96: (0, 0, 22, 22, 0, 17, 12, 0, 6, 0, 60, 0)
s = 97: (0, 0, 22, 23, 0, 26, 8, 0, 6, 0, 57, 0)
s = 98: (0, 0, 31, 10, 0, 19, 12, 0, 7, 0, 26, 0)
s = 99: (0, 0, 23, 17, 0, 18, 13, 0, 5, 0, 35, 0)
s = 100: (0, 0, 24, 12, 0, 14, 15, 0, 5, 0, 33, 0)
s = 101: (0, 0, 36, 10, 0, 23, 15, 0, 6, 0, 27, 0)
s = 102: (0, 0, 31, 10, 0, 23, 12, 0, 4, 0, 22, 0)
s = 103: (0, 0, 23, 15, 0, 17, 24, 0, 4, 0, 30, 0)
s = 104: (0, 0, 15, 19, 0, 12, 14, 0, 4, 0, 34, 0)
s = 105: (0, 0, 17, 23, 0, 16, 12, 0, 4, 0, 23, 0)
s = 106: (0, 0, 15, 14, 0, 13, 11, 0, 6, 0, 25, 0)
s = 107: (0, 0, 29, 19, 0, 14, 19, 0, 8, 0, 36, 0)
s = 108: (0, 0, 28, 13, 0, 19, 9, 0, 7, 0, 28, 0)
s = 109: (0, 0, 22, 19, 0, 23, 12, 0, 7, 0, 40, 0)
s = 110: (0, 0, 22, 15, 0, 19, 8, 0, 7, 0, 35, 0)
s = 111: (0, 0, 23, 20, 0, 11, 10, 0, 4, 0, 32, 0)
s = 112: (0, 0, 21, 19, 0, 15, 12, 0, 5, 0, 20, 0)
s = 113: (0, 0, 17, 22, 0, 19, 24, 0, 5, 0, 33, 0)
s = 114: (0, 0, 22, 21, 0, 15, 11, 0, 6, 0, 36, 0)
s = 115: (0, 0, 22, 20, 0, 19, 18, 0, 4, 0, 39, 0)
s = 116: (0, 0, 16, 11, 0, 29, 9, 0, 6, 0, 27, 0)
s = 117: (0, 0, 18, 15, 0, 36, 14, 0, 5, 0, 34, 0)
s = 118: (0, 0, 20, 29, 0, 14, 18, 0, 6, 0, 36, 0)
s = 119: (0, 0, 16, 18, 0, 23, 20, 0, 4, 0, 30, 0)
s = 120: (0, 0, 37, 28, 0, 14, 26, 0, 5, 0, 27, 0)
s = 121: (0, 0, 26, 18, 0, 15, 16, 0, 4, 0, 33, 0)
s = 122: (0, 0, 28, 17, 0, 13, 15, 0, 4, 0, 34, 0)
s = 123: (0, 0, 17, 17, 0, 24, 11, 0, 4, 0, 63, 0)
s = 124: (0, 0, 25, 22, 0, 15, 12, 0, 4, 0, 23, 0)
s = 125: (0, 0, 40, 22, 0, 16, 16, 0, 5, 0, 21, 0)
s = 126: (0, 0, 19, 19, 0, 17, 10, 0, 4, 0, 20, 0)
s = 127: (0, 0, 41, 24, 0, 16, 11, 0, 4, 0, 26, 0)
s = 128: (0, 0, 26, 18, 0, 14, 14, 0, 5, 0, 27, 0)
s = 129: (0, 0, 32, 18, 0, 19, 12, 0, 7, 0, 41, 0)
s = 130: (0, 0, 32, 14, 0, 21, 15, 0, 5, 0, 24, 0)
s = 131: (0, 0, 44, 17, 0, 22, 22, 0, 6, 0, 38, 0)
s = 132: (0, 0, 21, 15, 0, 17, 13, 0, 5, 0, 21, 0)
s = 133: (0, 0, 21, 13, 0, 17, 16, 0, 6, 0, 24, 0)
s = 134: (0, 0, 23, 19, 0, 23, 20, 0, 5, 0, 30, 0)
s = 135: (0, 0, 16, 12, 0, 25, 18, 0, 6, 0, 20, 0)
s = 136: (0, 0, 18, 20, 0, 24, 14, 0, 6, 0, 28, 0)
s = 137: (0, 0, 23, 15, 0, 16, 15, 0, 6, 0, 22, 0)
s = 138: (0, 0, 23, 20, 0, 23, 11, 0, 4, 0, 40, 0)
s = 139: (0, 0, 20, 24, 0, 27, 19, 0, 5, 0, 21, 0)
s = 140: (0, 0, 41, 22, 0, 12, 14, 0, 6, 0, 46, 0)
s = 141: (0, 0, 19, 17, 0, 25, 11, 0, 4, 0, 21, 0)
s = 142: (0, 0, 24, 25, 0, 21, 15, 0, 4, 0, 24, 0)
s = 143: (0, 0, 31, 17, 0, 22, 10, 0, 5, 0, 33, 0)
s = 144: (0, 0, 16, 14, 0, 18, 10, 0, 4, 0, 33, 0)
s = 145: (0, 0, 14, 14, 0, 17, 20, 0, 6, 0, 30, 0)
s = 146: (0, 0, 42, 16, 0, 13, 9, 0, 7, 0, 34, 0)
s = 147: (0, 0, 15, 16, 0, 20, 16, 0, 7, 0, 36, 0)
s = 148: (0, 0, 21, 15, 0, 24, 12, 0, 4, 0, 22, 0)
s = 149: (0, 0, 20, 17, 0, 23, 14, 0, 5, 0, 37, 0)
s = 150: (0, 0, 35, 31, 0, 17, 20, 0, 4, 0, 59, 0)
s = 151: (0, 0, 31, 17, 0, 20, 10, 0, 7, 0, 35, 0)
s = 152: (0, 0, 22, 16, 0, 18, 17, 0, 4, 0, 22, 0)
s = 153: (0, 0, 20, 22, 0, 27, 14, 0, 10, 0, 18, 0)
s = 154: (0, 0, 22, 27, 0, 17, 13, 0, 4, 0, 43, 0)
s = 155: (0, 0, 23, 28, 0, 20, 12, 0, 6, 0, 23, 0)
s = 156: (0, 0, 20, 16, 0, 28, 14, 0, 6, 0, 43, 0)
s = 157: (0, 0, 17, 15, 0, 23, 15, 0, 4, 0, 38, 0)
s = 158: (0, 0, 29, 14, 0, 20, 15, 0, 6, 0, 37, 0)
s = 159: (0, 0, 22, 26, 0, 18, 10, 0, 7, 0, 29, 0)
s = 160: (0, 0, 28, 22, 0, 14, 9, 0, 4, 0, 42, 0)
s = 161: (0, 0, 15, 14, 0, 26, 9, 0, 9, 0, 20, 0)
s = 162: (0, 0, 16, 21, 0, 28, 10, 0, 5, 0, 35, 0)
s = 163: (0, 0, 23, 18, 0, 17, 14, 0, 5, 0, 29, 0)
s = 164: (0, 0, 14, 24, 0, 22, 9, 0, 6, 0, 35, 0)
s = 165: (0, 0, 27, 11, 0, 30, 9, 0, 5, 0, 26, 0)
s = 166: (0, 0, 19, 13, 0, 16, 19, 0, 4, 0, 27, 0)
s = 167: (0, 0, 20, 16, 0, 29, 22, 0, 7, 0, 25, 0)
s = 168: (0, 0, 26, 18, 0, 14, 11, 0, 4, 0, 26, 0)
s = 169: (0, 0, 40, 26, 0, 15, 13, 0, 8, 0, 23, 0)
s = 170: (0, 0, 26, 16, 0, 15, 14, 0, 5, 0, 23, 0)
s = 171: (0, 0, 19, 11, 0, 17, 11, 0, 5, 0, 34, 0)
s = 172: (0, 0, 15, 14, 0, 18, 13, 0, 5, 0, 35, 0)
s = 173: (0, 0, 25, 20, 0, 30, 17, 0, 7, 0, 51, 0)
s = 174: (0, 0, 19, 17, 0, 28, 13, 0, 6, 0, 34, 0)
s = 175: (0, 0, 17, 21, 0, 24, 11, 0, 6, 0, 39, 0)
s = 176: (0, 0, 29, 16, 0, 19, 12, 0, 7, 0, 26, 0)
s = 177: (0, 0, 13, 17, 0, 20, 14, 0, 5, 0, 41, 0)
s = 178: (0, 0, 37, 20, 0, 15, 13, 0, 6, 0, 27, 0)
s = 179: (0, 0, 27, 10, 0, 15, 16, 0, 7, 0, 25, 0)
s = 180: (0, 0, 27, 16, 0, 28, 9, 0, 7, 0, 32, 0)
s = 181: (0, 0, 20, 13, 0, 16, 18, 0, 5, 0, 33, 0)
s = 182: (0, 0, 18, 15, 0, 12, 20, 0, 7, 0, 23, 0)
s = 183: (0, 0, 24, 22, 0, 17, 14, 0, 6, 0, 26, 0)
s = 184: (0, 0, 25, 10, 0, 24, 9, 0, 6, 0, 35, 0)
s = 185: (0, 0, 17, 18, 0, 29, 24, 0, 5, 0, 37, 0)
s = 186: (0, 0, 23, 14, 0, 31, 15, 0, 7, 0, 27, 0)
s = 187: (0, 0, 40, 16, 0, 14, 14, 0, 7, 0, 20, 0)
s = 188: (0, 0, 20, 28, 0, 21, 10, 0, 4, 0, 43, 0)
s = 189: (0, 0, 27, 20, 0, 21, 9, 0, 6, 0, 25, 0)
s = 190: (0, 0, 21, 28, 0, 26, 15, 0, 7, 0, 26, 0)
s = 191: (0, 0, 33, 12, 0, 27, 14, 0, 4, 0, 18, 0)
s = 192: (0, 0, 16, 19, 0, 13, 14, 0, 4, 0, 49, 0)
s = 193: (0, 0, 25, 21, 0, 22, 8, 0, 5, 0, 23, 0)
s = 194: (0, 0, 13, 16, 0, 15, 13, 0, 6, 0, 29, 0)
s = 195: (0, 0, 27, 25, 0, 18, 11, 0, 5, 0, 32, 0)
s = 196: (0, 0, 21, 24, 0, 22, 11, 0, 7, 0, 22, 0)
s = 197: (0, 0, 16, 13, 0, 15, 18, 0, 7, 0, 38, 0)
s = 198: (0, 0, 19, 13, 0, 25, 16, 0, 4, 0, 56, 0)
s = 199: (0, 0, 15, 21, 0, 37, 12, 0, 4, 0, 22, 0)
s = 200: (0, 0, 24, 12, 0, 16, 14, 0, 6, 0, 26, 0)
------------------------------------------------------------------------
RESOURCE k = 3
s = 1: (0, 6, 0, 0, 15, 0, 0, 32, 0, 7, 0, 0)
s = 2: (0, 4, 0, 0, 15, 0, 0, 55, 0, 6, 0, 0)
s = 3: (0, 4, 0, 0, 10, 0, 0, 39, 0, 8, 0, 0)
s = 4: (0, 5, 0, 0, 12, 0, 0, 42, 0, 9, 0, 0)
s = 5: (0, 3, 0, 0, 17, 0, 0, 43, 0, 6, 0, 0)
s = 6: (0, 3, 0, 0, 20, 0, 0, 47, 0, 12, 0, 0)
s = 7: (0, 7, 0, 0, 13, 0, 0, 49, 0, 6, 0, 0)
s = 8: (0, 5, 0, 0, 19, 0, 0, 61, 0, 6, 0, 0)
s = 9: (0, 6, 0, 0, 11, 0, 0, 39, 0, 8, 0, 0)
s = 10: (0, 4, 0, 0, 12, 0, 0, 49, 0, 9, 0, 0)
s = 11: (0, 4, 0, 0, 10, 0, 0, 57, 0, 7, 0, 0)
s = 12: (0, 3, 0, 0, 9, 0, 0, 32, 0, 8, 0, 0)
s = 13: (0, 4, 0, 0, 12, 0, 0, 55, 0, 12, 0, 0)
s = 14: (0, 5, 0, 0, 12, 0, 0, 50, 0, 11, 0, 0)
s = 15: (0, 7, 0, 0, 10, 0, 0, 32, 0, 6, 0, 0)
s = 16: (0, 5, 0, 0, 8, 0, 0, 74, 0, 12, 0, 0)
s = 17: (0, 4, 0, 0, 14, 0, 0, 42, 0, 12, 0, 0)
s = 18: (0, 4, 0, 0, 16, 0, 0, 36, 0, 8, 0, 0)
s = 19: (0, 4, 0, 0, 12, 0, 0, 46, 0, 9, 0, 0)
s = 20: (0, 4, 0, 0, 11, 0, 0, 39, 0, 8, 0, 0)
s = 21: (0, 6, 0, 0, 11, 0, 0, 46, 0, 10, 0, 0)
s = 22: (0, 5, 0, 0, 12, 0, 0, 32, 0, 8, 0, 0)
s = 23: (0, 5, 0, 0, 12, 0, 0, 41, 0, 6, 0, 0)
s = 24: (0, 5, 0, 0, 13, 0, 0, 37, 0, 6, 0, 0)
s = 25: (0, 5, 0, 0, 13, 0, 0, 46, 0, 9, 0, 0)
s = 26: (0, 3, 0, 0, 13, 0, 0, 66, 0, 7, 0, 0)
s = 27: (0, 7, 0, 0, 10, 0, 0, 33, 0, 8, 0, 0)
s = 28: (0, 6, 0, 0, 18, 0, 0, 36, 0, 6, 0, 0)
s = 29: (0, 3, 0, 0, 16, 0, 0, 54, 0, 6, 0, 0)
s = 30: (0, 3, 0, 0, 10, 0, 0, 51, 0, 9, 0, 0)
s = 31: (0, 4, 0, 0, 13, 0, 0, 61, 0, 10, 0, 0)
s = 32: (0, 5, 0, 0, 11, 0, 0, 35, 0, 6, 0, 0)
s = 33: (0, 5, 0, 0, 12, 0, 0, 39, 0, 13, 0, 0)
s = 34: (0, 5, 0, 0, 9, 0, 0, 77, 0, 7, 0, 0)
s = 35: (0, 5, 0, 0, 12, 0, 0, 53, 0, 11, 0, 0)
s = 36: (0, 5, 0, 0, 21, 0, 0, 36, 0, 7, 0, 0)
s = 37: (0, 5, 0, 0, 20, 0, 0, 54, 0, 9, 0, 0)
s = 38: (0, 5, 0, 0, 11, 0, 0, 56, 0, 11, 0, 0)
s = 39: (0, 5, 0, 0, 10, 0, 0, 46, 0, 12, 0, 0)
s = 40: (0, 5, 0, 0, 15, 0, 0, 41, 0, 9, 0, 0)
s = 41: (0, 4, 0, 0, 15, 0, 0, 34, 0, 11, 0, 0)
s = 42: (0, 5, 0, 0, 10, 0, 0, 48, 0, 10, 0, 0)
s = 43: (0, 3, 0, 0, 12, 0, 0, 39, 0, 6, 0, 0)
s = 44: (0, 4, 0, 0, 11, 0, 0, 37, 0, 7, 0, 0)
s = 45: (0, 3, 0, 0, 8, 0, 0, 51, 0, 8, 0, 0)
s = 46: (0, 5, 0, 0, 11, 0, 0, 26, 0, 14, 0, 0)
s = 47: (0, 5, 0, 0, 16, 0, 0, 35, 0, 10, 0, 0)
s = 48: (0, 4, 0, 0, 11, 0, 0, 45, 0, 7, 0, 0)
s = 49: (0, 5, 0, 0, 12, 0, 0, 51, 0, 9, 0, 0)
s = 50: (0, 4, 0, 0, 9, 0, 0, 41, 0, 8, 0, 0)
s = 51: (0, 4, 0, 0, 13, 0, 0, 65, 0, 8, 0, 0)
s = 52: (0, 3, 0, 0, 13, 0, 0, 41, 0, 11, 0, 0)
s = 53: (0, 5, 0, 0, 17, 0, 0, 53, 0, 9, 0, 0)
s = 54: (0, 3, 0, 0, 12, 0, 0, 45, 0, 8, 0, 0)
s = 55: (0, 3, 0, 0, 14, 0, 0, 32, 0, 9, 0, 0)
s = 56: (0, 4, 0, 0, 9, 0, 0, 41, 0, 8, 0, 0)
s = 57: (0, 5, 0, 0, 17, 0, 0, 36, 0, 7, 0, 0)
s = 58: (0, 4, 0, 0, 17, 0, 0, 70, 0, 8, 0, 0)
s = 59: (0, 4, 0, 0, 8, 0, 0, 27, 0, 6, 0, 0)
s = 60: (0, 4, 0, 0, 10, 0, 0, 53, 0, 7, 0, 0)
s = 61: (0, 5, 0, 0, 13, 0, 0, 45, 0, 10, 0, 0)
s = 62: (0, 6, 0, 0, 11, 0, 0, 29, 0, 10, 0, 0)
s = 63: (0, 3, 0, 0, 12, 0, 0, 47, 0, 10, 0, 0)
s = 64: (0, 5, 0, 0, 16, 0, 0, 43, 0, 11, 0, 0)
s = 65: (0, 4, 0, 0, 10, 0, 0, 71, 0, 10, 0, 0)
s = 66: (0, 3, 0, 0, 15, 0, 0, 51, 0, 8, 0, 0)
s = 67: (0, 3, 0, 0, 15, 0, 0, 63, 0, 9, 0, 0)
s = 68: (0, 3, 0, 0, 15, 0, 0, 26, 0, 7, 0, 0)
s = 69: (0, 6, 0, 0, 17, 0, 0, 25, 0, 7, 0, 0)
s = 70: (0, 6, 0, 0, 11, 0, 0, 46, 0, 9, 0, 0)
s = 71: (0, 4, 0, 0, 10, 0, 0, 45, 0, 7, 0, 0)
s = 72: (0, 5, 0, 0, 14, 0, 0, 43, 0, 6, 0, 0)
s = 73: (0, 7, 0, 0, 12, 0, 0, 43, 0, 9, 0, 0)
s = 74: (0, 6, 0, 0, 7, 0, 0, 49, 0, 6, 0, 0)
s = 75: (0, 4, 0, 0, 10, 0, 0, 52, 0, 7, 0, 0)
s = 76: (0, 6, 0, 0, 7, 0, 0, 29, 0, 11, 0, 0)
s = 77: (0, 4, 0, 0, 10, 0, 0, 48, 0, 7, 0, 0)
s = 78: (0, 4, 0, 0, 18, 0, 0, 49, 0, 6, 0, 0)
s = 79: (0, 5, 0, 0, 16, 0, 0, 42, 0, 8, 0, 0)
s = 80: (0, 5, 0, 0, 10, 0, 0, 31, 0, 8, 0, 0)
s = 81: (0, 4, 0, 0, 18, 0, 0, 50, 0, 9, 0, 0)
s = 82: (0, 4, 0, 0, 12, 0, 0, 48, 0, 7, 0, 0)
s = 83: (0, 7, 0, 0, 8, 0, 0, 52, 0, 8, 0, 0)
s = 84: (0, 4, 0, 0, 15, 0, 0, 40, 0, 11, 0, 0)
s = 85: (0, 4, 0, 0, 9, 0, 0, 60, 0, 8, 0, 0)
s = 86: (0, 4, 0, 0, 13, 0, 0, 29, 0, 9, 0, 0)
s = 87: (0, 6, 0, 0, 9, 0, 0, 60, 0, 7, 0, 0)
s = 88: (0, 4, 0, 0, 15, 0, 0, 31, 0, 11, 0, 0)
s = 89: (0, 3, 0, 0, 12, 0, 0, 49, 0, 15, 0, 0)
s = 90: (0, 5, 0, 0, 10, 0, 0, 66, 0, 6, 0, 0)
s = 91: (0, 7, 0, 0, 10, 0, 0, 45, 0, 12, 0, 0)
s = 92: (0, 4, 0, 0, 11, 0, 0, 60, 0, 5, 0, 0)
s = 93: (0, 4, 0, 0, 14, 0, 0, 27, 0, 7, 0, 0)
s = 94: (0, 4, 0, 0, 9, 0, 0, 42, 0, 9, 0, 0)
s = 95: (0, 6, 0, 0, 11, 0, 0, 37, 0, 14, 0, 0)
s = 96: (0, 5, 0, 0, 20, 0, 0, 62, 0, 14, 0, 0)
s = 97: (0, 8, 0, 0, 8, 0, 0, 47, 0, 6, 0, 0)
s = 98: (0, 3, 0, 0, 10, 0, 0, 63, 0, 9, 0, 0)
s = 99: (0, 5, 0, 0, 12, 0, 0, 27, 0, 11, 0, 0)
s = 100: (0, 6, 0, 0, 13, 0, 0, 42, 0, 7, 0, 0)
s = 101: (0, 5, 0, 0, 13, 0, 0, 55, 0, 8, 0, 0)
s = 102: (0, 5, 0, 0, 14, 0, 0, 44, 0, 8, 0, 0)
s = 103: (0, 5, 0, 0, 13, 0, 0, 44, 0, 6, 0, 0)
s = 104: (0, 5, 0, 0, 16, 0, 0, 68, 0, 7, 0, 0)
s = 105: (0, 4, 0, 0, 15, 0, 0, 32, 0, 9, 0, 0)
s = 106: (0, 3, 0, 0, 10, 0, 0, 40, 0, 7, 0, 0)
s = 107: (0, 5, 0, 0, 9, 0, 0, 48, 0, 9, 0, 0)
s = 108: (0, 4, 0, 0, 8, 0, 0, 47, 0, 7, 0, 0)
s = 109: (0, 5, 0, 0, 8, 0, 0, 49, 0, 8, 0, 0)
s = 110: (0, 3, 0, 0, 17, 0, 0, 57, 0, 8, 0, 0)
s = 111: (0, 7, 0, 0, 7, 0, 0, 38, 0, 10, 0, 0)
s = 112: (0, 4, 0, 0, 17, 0, 0, 35, 0, 6, 0, 0)
s = 113: (0, 5, 0, 0, 19, 0, 0, 48, 0, 7, 0, 0)
s = 114: (0, 3, 0, 0, 14, 0, 0, 35, 0, 9, 0, 0)
s = 115: (0, 5, 0, 0, 15, 0, 0, 34, 0, 11, 0, 0)
s = 116: (0, 5, 0, 0, 10, 0, 0, 43, 0, 5, 0, 0)
s = 117: (0, 5, 0, 0, 16, 0, 0, 31, 0, 6, 0, 0)
s = 118: (0, 4, 0, 0, 9, 0, 0, 71, 0, 10, 0, 0)
s = 119: (0, 5, 0, 0, 11, 0, 0, 40, 0, 10, 0, 0)
s = 120: (0, 5, 0, 0, 20, 0, 0, 58, 0, 13, 0, 0)
s = 121: (0, 5, 0, 0, 13, 0, 0, 47, 0, 7, 0, 0)
s = 122: (0, 5, 0, 0, 8, 0, 0, 38, 0, 7, 0, 0)
s = 123: (0, 5, 0, 0, 9, 0, 0, 36, 0, 6, 0, 0)
s = 124: (0, 7, 0, 0, 16, 0, 0, 41, 0, 11, 0, 0)
s = 125: (0, 4, 0, 0, 12, 0, 0, 39, 0, 6, 0, 0)
s = 126: (0, 9, 0, 0, 18, 0, 0, 38, 0, 7, 0, 0)
s = 127: (0, 5, 0, 0, 9, 0, 0, 53, 0, 7, 0, 0)
s = 128: (0, 4, 0, 0, 14, 0, 0, 25, 0, 9, 0, 0)
s = 129: (0, 5, 0, 0, 10, 0, 0, 28, 0, 7, 0, 0)
s = 130: (0, 7, 0, 0, 14, 0, 0, 43, 0, 11, 0, 0)
s = 131: (0, 3, 0, 0, 19, 0, 0, 51, 0, 9, 0, 0)
s = 132: (0, 4, 0, 0, 9, 0, 0, 32, 0, 11, 0, 0)
s = 133: (0, 4, 0, 0, 11, 0, 0, 59, 0, 7, 0, 0)
s = 134: (0, 4, 0, 0, 13, 0, 0, 38, 0, 11, 0, 0)
s = 135: (0, 4, 0, 0, 16, 0, 0, 50, 0, 6, 0, 0)
s = 136: (0, 7, 0, 0, 15, 0, 0, 30, 0, 8, 0, 0)
s = 137: (0, 4, 0, 0, 18, 0, 0, 28, 0, 11, 0, 0)
s = 138: (0, 3, 0, 0, 13, 0, 0, 68, 0, 8, 0, 0)
s = 139: (0, 4, 0, 0, 16, 0, 0, 38, 0, 7, 0, 0)
s = 140: (0, 5, 0, 0, 12, 0, 0, 57, 0, 6, 0, 0)
s = 141: (0, 4, 0, 0, 12, 0, 0, 46, 0, 7, 0, 0)
s = 142: (0, 3, 0, 0, 19, 0, 0, 32, 0, 9, 0, 0)
s = 143: (0, 4, 0, 0, 18, 0, 0, 68, 0, 6, 0, 0)
s = 144: (0, 6, 0, 0, 10, 0, 0, 35, 0, 10, 0, 0)
s = 145: (0, 4, 0, 0, 19, 0, 0, 66, 0, 5, 0, 0)
s = 146: (0, 4, 0, 0, 8, 0, 0, 33, 0, 6, 0, 0)
s = 147: (0, 3, 0, 0, 11, 0, 0, 77, 0, 8, 0, 0)
s = 148: (0, 3, 0, 0, 9, 0, 0, 74, 0, 11, 0, 0)
s = 149: (0, 4, 0, 0, 9, 0, 0, 58, 0, 11, 0, 0)
s = 150: (0, 4, 0, 0, 10, 0, 0, 49, 0, 15, 0, 0)
s = 151: (0, 4, 0, 0, 15, 0, 0, 35, 0, 7, 0, 0)
s = 152: (0, 5, 0, 0, 13, 0, 0, 41, 0, 12, 0, 0)
s = 153: (0, 6, 0, 0, 15, 0, 0, 42, 0, 6, 0, 0)
s = 154: (0, 3, 0, 0, 13, 0, 0, 25, 0, 7, 0, 0)
s = 155: (0, 3, 0, 0, 16, 0, 0, 56, 0, 11, 0, 0)
s = 156: (0, 5, 0, 0, 8, 0, 0, 34, 0, 6, 0, 0)
s = 157: (0, 5, 0, 0, 15, 0, 0, 68, 0, 11, 0, 0)
s = 158: (0, 4, 0, 0, 13, 0, 0, 43, 0, 7, 0, 0)
s = 159: (0, 3, 0, 0, 13, 0, 0, 30, 0, 11, 0, 0)
s = 160: (0, 3, 0, 0, 14, 0, 0, 33, 0, 9, 0, 0)
s = 161: (0, 6, 0, 0, 11, 0, 0, 44, 0, 7, 0, 0)
s = 162: (0, 5, 0, 0, 9, 0, 0, 50, 0, 10, 0, 0)
s = 163: (0, 6, 0, 0, 15, 0, 0, 57, 0, 7, 0, 0)
s = 164: (0, 3, 0, 0, 9, 0, 0, 73, 0, 5, 0, 0)
s = 165: (0, 6, 0, 0, 16, 0, 0, 33, 0, 6, 0, 0)
s = 166: (0, 6, 0, 0, 21, 0, 0, 29, 0, 10, 0, 0)
s = 167: (0, 4, 0, 0, 9, 0, 0, 44, 0, 9, 0, 0)
s = 168: (0, 4, 0, 0, 10, 0, 0, 71, 0, 11, 0, 0)
s = 169: (0, 3, 0, 0, 15, 0, 0, 50, 0, 8, 0, 0)
s = 170: (0, 5, 0, 0, 16, 0, 0, 43, 0, 8, 0, 0)
s = 171: (0, 5, 0, 0, 12, 0, 0, 41, 0, 10, 0, 0)
s = 172: (0, 4, 0, 0, 14, 0, 0, 42, 0, 8, 0, 0)
s = 173: (0, 5, 0, 0, 14, 0, 0, 46, 0, 9, 0, 0)
s = 174: (0, 5, 0, 0, 16, 0, 0, 64, 0, 6, 0, 0)
s = 175: (0, 6, 0, 0, 10, 0, 0, 76, 0, 6, 0, 0)
s = 176: (0, 5, 0, 0, 12, 0, 0, 47, 0, 7, 0, 0)
s = 177: (0, 7, 0, 0, 14, 0, 0, 36, 0, 6, 0, 0)
s = 178: (0, 6, 0, 0, 10, 0, 0, 33, 0, 8, 0, 0)
s = 179: (0, 4, 0, 0, 16, 0, 0, 36, 0, 8, 0, 0)
s = 180: (0, 3, 0, 0, 9, 0, 0, 47, 0, 8, 0, 0)
s = 181: (0, 5, 0, 0, 8, 0, 0, 66, 0, 7, 0, 0)
s = 182: (0, 4, 0, 0, 16, 0, 0, 78, 0, 10, 0, 0)
s = 183: (0, 5, 0, 0, 15, 0, 0, 31, 0, 10, 0, 0)
s = 184: (0, 4, 0, 0, 13, 0, 0, 63, 0, 13, 0, 0)
s = 185: (0, 4, 0, 0, 11, 0, 0, 30, 0, 7, 0, 0)
s = 186: (0, 4, 0, 0, 17, 0, 0, 52, 0, 10, 0, 0)
s = 187: (0, 4, 0, 0, 18, 0, 0, 41, 0, 6, 0, 0)
s = 188: (0, 5, 0, 0, 8, 0, 0, 58, 0, 8, 0, 0)
s = 189: (0, 4, 0, 0, 12, 0, 0, 58, 0, 10, 0, 0)
s = 190: (0, 6, 0, 0, 8, 0, 0, 30, 0, 6, 0, 0)
s = 191: (0, 7, 0, 0, 8, 0, 0, 55, 0, 10, 0, 0)
s = 192: (0, 3, 0, 0, 14, 0, 0, 61, 0, 6, 0, 0)
s = 193: (0, 4, 0, 0, 10, 0, 0, 50, 0, 9, 0, 0)
s = 194: (0, 6, 0, 0, 12, 0, 0, 45, 0, 14, 0, 0)
s = 195: (0, 3, 0, 0, 11, 0, 0, 72, 0, 9, 0, 0)
s = 196: (0, 4, 0, 0, 10, 0, 0, 29, 0, 11, 0, 0)
s = 197: (0, 7, 0, 0, 16, 0, 0, 79, 0, 6, 0, 0)
s = 198: (0, 4, 0, 0, 15, 0, 0, 63, 0, 6, 0, 0)
s = 199: (0, 4, 0, 0, 13, 0, 0, 47, 0, 8, 0, 0)
s = 200: (0, 5, 0, 0, 13, 0, 0, 41, 0, 9, 0, 0)
************************************************************************
ES/LS-VALUES:
jobnr.   ES(i)    LS(i)
------------------------------------------------------------------------
  0        0        0
  1        0       68
  2        0       44
  3        0       52
  4        5       54
  5        5       50
  6        5       63
  7       12       58
  8        9       73
  9        8       73
 10       20       67
 11       28       75
************************************************************************
BIG-M-VALUES:
M1 = 47, M2 = 181
************************************************************************
